p cnf 45 151
-3 -1 0
-3 -2 0
1 2 3 0
-6 4 0
-6 -5 0
-4 5 6 0
-6 1 -7 0
6 -1 -7 0
-6 -1 7 0
6 1 7 0
8 9 -10 0
-8 -9 -10 0
8 -9 10 0
-8 9 10 0
-13 -11 0
-13 -12 0
11 12 13 0
-14 -10 0
-14 13 0
10 -13 14 0
-15 7 0
-15 14 0
-7 -14 15 0
-16 -7 0
-16 -1 0
7 1 16 0
-17 8 0
-17 -4 0
-8 4 17 0
18 -16 0
18 17 0
16 -17 -18 0
19 -15 0
19 -18 0
15 18 -19 0
-20 3 0
-20 19 0
-3 -19 20 0
-21 13 0
-21 -8 0
-13 8 21 0
6 4 -22 0
-6 -4 -22 0
6 -4 22 0
-6 4 22 0
-23 21 0
-23 -22 0
-21 22 23 0
-24 -20 0
-24 -23 0
20 23 24 0
-26 -9 0
-26 25 0
9 -25 26 0
-27 -25 0
-27 7 0
25 -7 27 0
-26 -27 -28 0
26 27 -28 0
-26 27 28 0
26 -27 28 0
29 28 0
29 25 0
-28 -25 -29 0
31 17 0
31 -30 0
-17 30 -31 0
-32 29 0
-32 31 0
-29 -31 32 0
-33 -12 0
-33 -26 0
12 26 33 0
-28 4 -34 0
28 -4 -34 0
-28 -4 34 0
28 4 34 0
-33 34 -35 0
33 -34 -35 0
-33 -34 35 0
33 34 35 0
-32 35 -36 0
32 -35 -36 0
-32 -35 36 0
32 35 36 0
-37 5 0
-37 26 0
-5 -26 37 0
36 37 -38 0
-36 -37 -38 0
36 -37 38 0
-36 37 38 0
39 8 0
39 -25 0
-8 25 -39 0
38 -39 -40 0
-38 39 -40 0
38 39 40 0
-38 -39 40 0
41 24 0
41 -40 0
-24 40 -41 0
42 -13 0
42 -27 0
13 27 -42 0
43 6 0
43 -12 0
-6 12 -43 0
42 -43 -44 0
-42 43 -44 0
42 43 44 0
-42 -43 44 0
45 41 0
45 -44 0
-41 44 -45 0
30 -20 0
-41 -37 0
14 6 24 -10 39 0
25 42 18 40 0
-14 -44 22 0
12 38 -36 -17 -32 0
-34 10 -20 36 -9 0
17 -18 -41 0
17 -15 0
2 -35 11 23 0
-15 -26 0
43 24 41 0
13 -42 1 45 -30 0
-38 -26 -15 32 17 0
-5 28 13 24 0
-23 -5 10 27 3 0
-42 -7 31 34 -33 -38 0
6 4 -35 -26 0
45 -16 0
37 -13 11 -4 28 25 0
1 18 -3 0
5 33 0
-9 -33 0
-39 40 38 0
17 -44 -25 19 39 -22 0
-34 14 -11 3 0
13 -35 45 39 -3 -38 0
-35 -30 9 -33 0
39 -7 0
-33 -43 34 14 -42 -12 0
23 43 -25 0
29 35 13 6 -10 12 0
37 45 0
28 -2 -16 0
-30 -18 0
45 0
